/* Objective function */
max: +420 P1L +360 P1M +300 P1S +420 P2L +360 P2M +300 P2S +420 P3L +360 P3M +300 P3S;

/* Constraints */
P1L: +P1L +P1M +P1S <= 750;
P1M: +P2L +P2M +P2S <= 900;
P1S: +P3L +P3M +P3S <= 450;
P2L: +20 P1L +15 P1M +12 P1S <= 13000;
P2M: +20 P2L +15 P2M +12 P2S <= 12000;
P2S: +20 P3L +15 P3M +12 P3S <= 5000;
P3L: +P1L +P2L +P3L <= 900;
P3M: +P1M +P2M +P3M <= 1200;
P3S: +P1S +P2S +P3S <= 750;
